Optimal - objective value 1082.00000000
      2 x_2                    1                      18
      4 x_4                    1                       6
     12 x_12                   1                       0
     17 x_17                   1                       0
     21 x_21                   1                   17.75
     23 x_23                   1                       0
     27 x_27                   1                       3
     30 x_30                   1                       0
     37 x_37                   1                   10.75
     45 x_45                   1                       0
     47 x_47                   1                       0
     53 x_53                   1                       0
     57 x_57                   1                       0
     62 x_62                   1                      -3
     67 x_67                   1                       6
     71 x_71                   1                       0
     73 x_73                   1                       0
     76 x_76                   1                       0
     82 x_82                   1                     6.5
     84 x_84                   1                       8
     93 x_93                   1                       0
     99 x_99                   1                       0
    105 x_105                  1                    15.5
    106 x_106                  1                      -7
    113 x_113                  1                       0
    118 x_118                  1                       0
    120 x_120                  1                       0
    126 x_126                  1                       0
    130 x_130                  1                       8
    131 x_131                  1                       0
    137 x_137                  1                       6
    143 x_143                  1                       0
    145 x_145                  1                       8
    152 x_152                  1                       3
    156 x_156                  1                       0
    158 x_158                  1                  -21.75
    165 x_165                  1                    11.5
    169 x_169                  1                       0
    170 x_170                  1                      22
    176 x_176                  1                  -10.75
    181 x_181                  1                       6
    184 x_184                  1                       0
    189 x_189                  1                  -15.75
    198 x_198                  1                       0
    202 x_202                  1                       0
    207 x_207                  1                       0
    212 x_212                  1                      -6
    216 x_216                  1                       0
    222 x_222                  1                      -7
    223 x_223                  1                       0
    233 x_233                  1                       0
    239 x_239                  1                       0
    240 x_240                  1                       0
    245 x_245                  1                       0
    249 x_249                  1                    -9.5
    252 x_252                  1                     -15
    259 x_259                  1                       4
    262 x_262                  1                      -3
    263 x_263                  1                   -6.25
    269 x_269                  1                       0
    275 x_275                  1                     -10
    280 x_280                  1                       6
    289 x_289                  1                       0
    294 x_294                  1                      -5
    295 x_295                  1                      17
    299 x_299                  1                    9.75
    302 x_302                  1                       6
    308 x_308                  1                    -4.5
    315 x_315                  1                  -12.75
    319 x_319                  1                     -15
    323 x_323                  1                   -10.5
    331 x_331                  1                      -4
    335 x_335                  1                       7
    338 x_338                  1                     -28
    345 x_345                  1                       0
    352 x_352                  1                      17
    357 x_357                  1                      -1
    360 x_360                  1                   -4.25
    366 x_366                  1                    4.25
    370 x_370                  1                       0
Optimal - objective value 1082.00000000
      2 x_2                    1                      18
      4 x_4                    1                       6
     12 x_12                   1                       0
     17 x_17                   1                       0
     21 x_21                   1                   17.75
     23 x_23                   1                       0
     27 x_27                   1                       3
     30 x_30                   1                       0
     37 x_37                   1                   10.75
     45 x_45                   1                       0
     47 x_47                   1                       0
     53 x_53                   1                       0
     57 x_57                   1                       0
     62 x_62                   1                      -3
     67 x_67                   1                       6
     71 x_71                   1                       0
     73 x_73                   1                       0
     76 x_76                   1                       0
     82 x_82                   1                     6.5
     84 x_84                   1                       8
     93 x_93                   1                       0
     99 x_99                   1                       0
    105 x_105                  1                    15.5
    106 x_106                  1                      -7
    113 x_113                  1                       0
    118 x_118                  1                       0
    120 x_120                  1                       0
    126 x_126                  1                       0
    130 x_130                  1                       8
    131 x_131                  1                       0
    137 x_137                  1                       6
    143 x_143                  1                       0
    145 x_145                  1                       8
    152 x_152                  1                       3
    156 x_156                  1                       0
    158 x_158                  1                  -21.75
    165 x_165                  1                    11.5
    169 x_169                  1                       0
    170 x_170                  1                      22
    176 x_176                  1                  -10.75
    181 x_181                  1                       6
    184 x_184                  1                       0
    189 x_189                  1                  -15.75
    198 x_198                  1                       0
    202 x_202                  1                       0
    207 x_207                  1                       0
    212 x_212                  1                      -6
    216 x_216                  1                       0
    222 x_222                  1                      -7
    223 x_223                  1                       0
    233 x_233                  1                       0
    239 x_239                  1                       0
    240 x_240                  1                       0
    245 x_245                  1                       0
    249 x_249                  1                    -9.5
    252 x_252                  1                     -15
    259 x_259                  1                       4
    262 x_262                  1                      -3
    263 x_263                  1                   -6.25
    269 x_269                  1                       0
    275 x_275                  1                     -10
    280 x_280                  1                       6
    289 x_289                  1                       0
    294 x_294                  1                      -5
    295 x_295                  1                      17
    299 x_299                  1                    9.75
    302 x_302                  1                       6
    308 x_308                  1                    -4.5
    315 x_315                  1                  -12.75
    319 x_319                  1                     -15
    323 x_323                  1                   -10.5
    331 x_331                  1                      -4
    335 x_335                  1                       7
    338 x_338                  1                     -28
    345 x_345                  1                       0
    352 x_352                  1                      17
    357 x_357                  1                      -1
    360 x_360                  1                   -4.25
    366 x_366                  1                    4.25
    370 x_370                  1                       0
